Version identifier: 22.1.0.0 | 2022-03-09 | 1a383f8ce
CPXPARAM_Threads                                 1
CPXPARAM_MIP_Strategy_VariableSelect             3
CPXPARAM_TimeLimit                               599.99878789499996
Found incumbent of value 0.000000 after 0.00 sec. (0.17 ticks)

Root node processing (before b&c):
  Real time             =    0.00 sec. (0.19 ticks)
Sequential b&c:
  Real time             =    0.00 sec. (0.00 ticks)
                          ------------
Total (root+branch&cut) =    0.00 sec. (0.19 ticks)
Version identifier: 22.1.0.0 | 2022-03-09 | 1a383f8ce
CPXPARAM_Threads                                 1
CPXPARAM_MIP_Strategy_VariableSelect             3
CPXPARAM_TimeLimit                               599.98988728100005
Found incumbent of value 0.000000 after 0.00 sec. (0.26 ticks)

Root node processing (before b&c):
  Real time             =    0.00 sec. (0.29 ticks)
Sequential b&c:
  Real time             =    0.00 sec. (0.00 ticks)
                          ------------
Total (root+branch&cut) =    0.00 sec. (0.29 ticks)
Version identifier: 22.1.0.0 | 2022-03-09 | 1a383f8ce
CPXPARAM_Threads                                 1
CPXPARAM_MIP_Strategy_VariableSelect             3
CPXPARAM_TimeLimit                               599.97867323399998
Found incumbent of value 0.000000 after 0.00 sec. (0.30 ticks)

Root node processing (before b&c):
  Real time             =    0.00 sec. (0.34 ticks)
Sequential b&c:
  Real time             =    0.00 sec. (0.00 ticks)
                          ------------
Total (root+branch&cut) =    0.00 sec. (0.34 ticks)
Version identifier: 22.1.0.0 | 2022-03-09 | 1a383f8ce
CPXPARAM_Threads                                 1
CPXPARAM_MIP_Strategy_VariableSelect             3
CPXPARAM_TimeLimit                               599.96588183100005
Tried aggregator 1 time.
MIP Presolve eliminated 386 rows and 748 columns.
MIP Presolve modified 1 coefficients.
Reduced MIP has 935 rows, 1496 columns, and 10935 nonzeros.
Reduced MIP has 1496 binaries, 0 generals, 0 SOSs, and 0 indicators.
Presolve time = 0.01 sec. (7.64 ticks)
Probing time = 0.00 sec. (3.71 ticks)
Tried aggregator 1 time.
Detecting symmetries...
Reduced MIP has 935 rows, 1496 columns, and 10935 nonzeros.
Reduced MIP has 1496 binaries, 0 generals, 0 SOSs, and 0 indicators.
Presolve time = 0.01 sec. (6.54 ticks)
Probing time = 0.00 sec. (3.71 ticks)
Clique table members: 560.
MIP emphasis: balance optimality and feasibility.
MIP search method: dynamic search.
Parallel mode: none, using 1 thread.
Root relaxation solution time = 0.01 sec. (10.64 ticks)

        Nodes                                         Cuts/
   Node  Left     Objective  IInf  Best Integer    Best Bound    ItCnt     Gap

      0     0        0.0000   123                      0.0000      391         
*     0+    0                            0.0000        0.0000             0.00%
      0     0        cutoff              0.0000        0.0000      391    0.00%
Elapsed time = 0.09 sec. (73.78 ticks, tree = 0.01 MB, solutions = 1)

Root node processing (before b&c):
  Real time             =    0.09 sec. (73.85 ticks)
Sequential b&c:
  Real time             =    0.00 sec. (0.00 ticks)
                          ------------
Total (root+branch&cut) =    0.09 sec. (73.85 ticks)
Version identifier: 22.1.0.0 | 2022-03-09 | 1a383f8ce
CPXPARAM_Threads                                 1
CPXPARAM_MIP_Strategy_VariableSelect             3
CPXPARAM_TimeLimit                               599.86006376700004
Tried aggregator 1 time.
MIP Presolve eliminated 398 rows and 772 columns.
MIP Presolve modified 1 coefficients.
Reduced MIP has 965 rows, 1544 columns, and 11289 nonzeros.
Reduced MIP has 1544 binaries, 0 generals, 0 SOSs, and 0 indicators.
Presolve time = 0.01 sec. (7.90 ticks)
Probing time = 0.00 sec. (3.75 ticks)
Tried aggregator 1 time.
Detecting symmetries...
Reduced MIP has 965 rows, 1544 columns, and 11289 nonzeros.
Reduced MIP has 1544 binaries, 0 generals, 0 SOSs, and 0 indicators.
Presolve time = 0.01 sec. (6.75 ticks)
Probing time = 0.00 sec. (3.75 ticks)
Clique table members: 578.
MIP emphasis: balance optimality and feasibility.
MIP search method: dynamic search.
Parallel mode: none, using 1 thread.
Root relaxation solution time = 0.01 sec. (11.83 ticks)

        Nodes                                         Cuts/
   Node  Left     Objective  IInf  Best Integer    Best Bound    ItCnt     Gap

      0     0        0.0000   102                      0.0000      417         
*     0+    0                            0.0000        0.0000             0.00%
      0     0        cutoff              0.0000        0.0000      417    0.00%
Elapsed time = 0.12 sec. (95.57 ticks, tree = 0.01 MB, solutions = 1)

Root node processing (before b&c):
  Real time             =    0.12 sec. (95.64 ticks)
Sequential b&c:
  Real time             =    0.00 sec. (0.00 ticks)
                          ------------
Total (root+branch&cut) =    0.12 sec. (95.64 ticks)
Version identifier: 22.1.0.0 | 2022-03-09 | 1a383f8ce
CPXPARAM_Threads                                 1
CPXPARAM_MIP_Strategy_VariableSelect             3
CPXPARAM_TimeLimit                               599.72721196800001
Tried aggregator 1 time.
MIP Presolve eliminated 404 rows and 784 columns.
MIP Presolve modified 1 coefficients.
Reduced MIP has 980 rows, 1568 columns, and 11466 nonzeros.
Reduced MIP has 1568 binaries, 0 generals, 0 SOSs, and 0 indicators.
Presolve time = 0.01 sec. (8.03 ticks)
Probing time = 0.00 sec. (3.78 ticks)
Tried aggregator 1 time.
Detecting symmetries...
Reduced MIP has 980 rows, 1568 columns, and 11466 nonzeros.
Reduced MIP has 1568 binaries, 0 generals, 0 SOSs, and 0 indicators.
Presolve time = 0.01 sec. (6.85 ticks)
Probing time = 0.00 sec. (3.78 ticks)
Clique table members: 587.
MIP emphasis: balance optimality and feasibility.
MIP search method: dynamic search.
Parallel mode: none, using 1 thread.
Root relaxation solution time = 0.02 sec. (14.37 ticks)

        Nodes                                         Cuts/
   Node  Left     Objective  IInf  Best Integer    Best Bound    ItCnt     Gap

      0     0        0.0000    54                      0.0000      462         
*     0+    0                            0.0000        0.0000             0.00%
      0     0        cutoff              0.0000        0.0000      462    0.00%
Elapsed time = 0.10 sec. (85.39 ticks, tree = 0.01 MB, solutions = 1)

Root node processing (before b&c):
  Real time             =    0.10 sec. (85.46 ticks)
Sequential b&c:
  Real time             =    0.00 sec. (0.00 ticks)
                          ------------
Total (root+branch&cut) =    0.10 sec. (85.46 ticks)
Version identifier: 22.1.0.0 | 2022-03-09 | 1a383f8ce
CPXPARAM_Threads                                 1
CPXPARAM_MIP_Strategy_VariableSelect             3
CPXPARAM_TimeLimit                               599.61235084800001
Tried aggregator 1 time.
MIP Presolve eliminated 408 rows and 792 columns.
MIP Presolve modified 1 coefficients.
Reduced MIP has 990 rows, 1584 columns, and 11584 nonzeros.
Reduced MIP has 1584 binaries, 0 generals, 0 SOSs, and 0 indicators.
Presolve time = 0.01 sec. (8.13 ticks)
Probing time = 0.00 sec. (3.80 ticks)
Tried aggregator 1 time.
Detecting symmetries...
Reduced MIP has 990 rows, 1584 columns, and 11584 nonzeros.
Reduced MIP has 1584 binaries, 0 generals, 0 SOSs, and 0 indicators.
Presolve time = 0.01 sec. (6.93 ticks)
Probing time = 0.00 sec. (3.80 ticks)
Clique table members: 593.
MIP emphasis: balance optimality and feasibility.
MIP search method: dynamic search.
Parallel mode: none, using 1 thread.
Root relaxation solution time = 0.02 sec. (13.94 ticks)

        Nodes                                         Cuts/
   Node  Left     Objective  IInf  Best Integer    Best Bound    ItCnt     Gap

      0     0        0.0000   144                      0.0000      471         
*     0+    0                            0.0000        0.0000             0.00%
      0     0        cutoff              0.0000        0.0000      471    0.00%
Elapsed time = 0.13 sec. (103.87 ticks, tree = 0.01 MB, solutions = 1)

Root node processing (before b&c):
  Real time             =    0.13 sec. (103.94 ticks)
Sequential b&c:
  Real time             =    0.00 sec. (0.00 ticks)
                          ------------
Total (root+branch&cut) =    0.13 sec. (103.94 ticks)
Version identifier: 22.1.0.0 | 2022-03-09 | 1a383f8ce
CPXPARAM_Threads                                 1
CPXPARAM_MIP_Strategy_VariableSelect             3
CPXPARAM_TimeLimit                               599.46981450299995
Tried aggregator 1 time.
MIP Presolve eliminated 410 rows and 796 columns.
MIP Presolve modified 1 coefficients.
Reduced MIP has 995 rows, 1592 columns, and 11643 nonzeros.
Reduced MIP has 1592 binaries, 0 generals, 0 SOSs, and 0 indicators.
Presolve time = 0.01 sec. (8.16 ticks)
Probing time = 0.00 sec. (3.79 ticks)
Tried aggregator 1 time.
Detecting symmetries...
Reduced MIP has 995 rows, 1592 columns, and 11643 nonzeros.
Reduced MIP has 1592 binaries, 0 generals, 0 SOSs, and 0 indicators.
Presolve time = 0.01 sec. (6.95 ticks)
Probing time = 0.00 sec. (3.79 ticks)
Clique table members: 596.
MIP emphasis: balance optimality and feasibility.
MIP search method: dynamic search.
Parallel mode: none, using 1 thread.
Root relaxation solution time = 0.02 sec. (14.27 ticks)

        Nodes                                         Cuts/
   Node  Left     Objective  IInf  Best Integer    Best Bound    ItCnt     Gap

      0     0        0.0000   114                      0.0000      473         
*     0+    0                            0.0000        0.0000             0.00%
      0     0        cutoff              0.0000        0.0000      473    0.00%
Elapsed time = 0.16 sec. (121.74 ticks, tree = 0.01 MB, solutions = 1)

Root node processing (before b&c):
  Real time             =    0.16 sec. (121.81 ticks)
Sequential b&c:
  Real time             =    0.00 sec. (0.00 ticks)
                          ------------
Total (root+branch&cut) =    0.16 sec. (121.81 ticks)
Primal:	199
Dual:	199
Status:	Optimal
Time:	0.703806
Sequence:
	10
	4
	1
	4
	5
	9
	5
	4
	1
	4
	4
	10
	4
	5
	9
	10
	4
	1
	9
	1
	9
	1
	9
	5
	9
	10
	9
	10
	9
	1
	9
	5
	9
	5
	0
	5
	9
	5
	9
	10
	9
	1
	4
	9
	5
	9
	5
	9
	9
	5
	9
	4
	5
	9
	5
	9
	5
	9
	1
	9
	5
	9
	5
	9
	5
	0
	10
	9
	5
	9
	1
	0
	1
	9
	9
	1
	9
	9
	5
	4
	1
	9
	1
	9
	1
	4
	5
	0
	5
	9
	5
	0
	5
	4
	1
	0
	1
	4
	5
	9
	5
	0
	5
	4
	1
	0
	4
	5
	0
	3
	4
	0
	5
	4
	1
	0
	5
	9
	0
	5
	4
	1
	0
	1
	4
	5
	0
	5
	9
	5
	0
	10
	4
	10
	9
	1
	4
	5
	0
	9
	10
	4
	0
	5
	9
	0
	5
	4
	1
	4
	1
	9
	10
	0
	5
	4
	1
	0
	1
	4
	1
	0
	1
	9
	10
	0
	10
	9
	5
	0
	5
	9
	1
	4
	10
	4
	1
	0
	4
	10
	9
	5
	4
	1
	0
	1
	4
	1
	0
	9
	9
	5
	0
	9
	5
	8
	10
	4
	5
